40
    94    92    86    56    74    45     8    68    59    92     8    62    89    62    80    31    38    34    97    71     5    46    12    81    17    84    53    62    31    90    28    21    31    57    23    64    28    34     1     4
     3     6    10    10     6     6     6     9     7     5     6     1     3     1     5     4     1    10    10     8     8     3     2     3     7     6     5    10    10     4     9     1     9     4     3    10     2     2     2     1
   628   713     0   822     0   413   488   833     0     0   736  1019   439   211   171   794   447   941  1064   845   310    83   654   655    30     0   263    72   497     0   712    62   916    54   155  1043   267     0   781   422
